# SCIP version 3.0.0

sepa/basis/enable = TRUE

sepa/basis/genobjconvex = TRUE

sepa/basis/objconvex = 1.0

sepa/basis/enableobj = TRUE

sepa/basis/enableobjround = TRUE

sepa/basis/enableppobjconss = TRUE

lp/solvefreq = 0

lp/iterlim = -1

lp/rootiterlim = -1

conflict/enable = FALSE

detectors/random/enabled = FALSE

separating/poolfreq = -1
